Cars = 1..200;
Options = 1..5;
Classes = 1..24;
sequenceMinCapacity = [0, 0, 0, 0, 0];
sequenceMaxCapacity = [1, 2, 1, 2, 1];
sequenceSize = [2, 3, 3, 5, 5];
numOrdered = [6, 2, 23, 10, 1, 18, 31, 5, 10, 1, 3, 6, 16, 5, 1, 3, 2, 17, 17, 1, 2, 3, 8, 9];
classHasOption = [| true,  true, false,  true, false
                  |false, false, false,  true,  true
                  |false, false, false,  true, false
                  | true, false, false,  true, false
                  |false, false,  true, false,  true
                  | true,  true, false, false, false
                  |false,  true, false, false, false
                  |false, false,  true,  true, false
                  |false, false, false, false,  true
                  | true, false,  true, false,  true
                  | true,  true,  true, false, false
                  | true, false,  true, false, false
                  |false,  true, false,  true, false
                  | true, false, false, false,  true
                  | true, false,  true,  true, false
                  |false,  true,  true, false,  true
                  | true,  true, false, false,  true
                  | true, false, false, false, false
                  |false, false,  true, false, false
                  | true,  true,  true,  true, false
                  | true,  true,  true, false,  true
                  |false,  true,  true,  true, false
                  |false,  true,  true, false, false
                  |false,  true, false, false,  true|];
optionOrdering = [5, 3, 1, 4, 2];
